27 6
9 10 10 10 10 10
1 0 0 0 0 0 0 3 2 3 4
7 6 10 6 0 10 10 4 5 6 7 8
5 6 0 10 0 0 10 3 27 7 8
8 0 3 10 7 8 8 4 5 6 7 8
3 6 0 7 0 7 0 4 9 10 11 12
11 0 6 0 10 9 0 3 10 11 12
5 0 0 0 7 0 10 3 10 11 12
4 9 0 0 8 0 6 4 9 10 11 12
8 4 10 7 0 4 9 4 13 14 15 16
6 0 10 0 6 2 0 4 13 14 15 16
8 5 0 0 8 0 6 4 13 14 15 16
4 0 0 0 0 0 3 4 13 14 15 16
5 6 0 6 10 4 0 4 17 18 19 20
8 6 0 9 0 0 0 4 17 18 19 20
2 0 2 0 0 0 5 3 17 19 20
9 0 10 0 0 0 0 4 17 18 19 20
10 0 5 4 0 0 3 4 21 22 23 24
4 0 6 0 8 0 0 4 21 22 23 24
2 4 6 0 0 0 0 3 22 23 24
10 0 3 4 8 0 6 3 22 23 24
3 0 9 3 5 5 8 2 25 26
9 0 0 10 0 8 3 2 25 26
9 9 6 0 0 6 9 2 25 26
9 9 0 6 0 10 0 2 25 26
7 9 9 3 0 4 5 1 27
6 5 4 10 7 10 0 1 27
0 0 0 0 0 0 0 0
